1 
9 
8 
5 
6 
7 
4 
6 
8 
8 
2 
2 
10 
2 
10 
6 
1 
10 
5 
3 
6 
4 
6 
3 
5 
2 
5 
2 
7 
3 
8 
1 
2 
10 
8 
7 
4 
9 
7 
9 
4 
6 
3 
1 
4 
5 
3 
8 
10 
5 
5 
6 
7 
7 
6 
2 
8 
2 
6 
9 
10 
7 
3 
6 
7 
5 
6 
2 
5 
10 
6 
5 
2 
4 
1 
6 
9 
5 
5 
8 
8 
4 
1 
7 
2 
6 
6 
1 
3 
10 
8 
7 
2 
7 
8 
5 
9 
8 
7 
2 
